(declare-fun strlen_431_64 () (_ BitVec 64))
(declare-fun mem_7fffffffffeac50_430_1032 () (_ BitVec 1032))
(assert (let ((a!1 (ite (= #x00 ((_ extract 567 560) mem_7fffffffffeac50_430_1032))
                #x07fffffffffeac8a
                (ite (= #x00 ((_ extract 559 552) mem_7fffffffffeac50_430_1032))
                     #x07fffffffffeac8b
                     #x0000000000000000))))
(let ((a!2 (ite (= #x00 ((_ extract 583 576) mem_7fffffffffeac50_430_1032))
                #x07fffffffffeac88
                (ite (= #x00 ((_ extract 575 568) mem_7fffffffffeac50_430_1032))
                     #x07fffffffffeac89
                     a!1))))
(let ((a!3 (ite (= #x00 ((_ extract 599 592) mem_7fffffffffeac50_430_1032))
                #x07fffffffffeac86
                (ite (= #x00 ((_ extract 591 584) mem_7fffffffffeac50_430_1032))
                     #x07fffffffffeac87
                     a!2))))
(let ((a!4 (ite (= #x00 ((_ extract 615 608) mem_7fffffffffeac50_430_1032))
                #x07fffffffffeac84
                (ite (= #x00 ((_ extract 607 600) mem_7fffffffffeac50_430_1032))
                     #x07fffffffffeac85
                     a!3))))
(let ((a!5 (ite (= #x00 ((_ extract 631 624) mem_7fffffffffeac50_430_1032))
                #x07fffffffffeac82
                (ite (= #x00 ((_ extract 623 616) mem_7fffffffffeac50_430_1032))
                     #x07fffffffffeac83
                     a!4))))
(let ((a!6 (ite (= #x00 ((_ extract 647 640) mem_7fffffffffeac50_430_1032))
                #x07fffffffffeac80
                (ite (= #x00 ((_ extract 639 632) mem_7fffffffffeac50_430_1032))
                     #x07fffffffffeac81
                     a!5))))
(let ((a!7 (ite (= #x00 ((_ extract 663 656) mem_7fffffffffeac50_430_1032))
                #x07fffffffffeac7e
                (ite (= #x00 ((_ extract 655 648) mem_7fffffffffeac50_430_1032))
                     #x07fffffffffeac7f
                     a!6))))
(let ((a!8 (ite (= #x00 ((_ extract 679 672) mem_7fffffffffeac50_430_1032))
                #x07fffffffffeac7c
                (ite (= #x00 ((_ extract 671 664) mem_7fffffffffeac50_430_1032))
                     #x07fffffffffeac7d
                     a!7))))
(let ((a!9 (ite (= #x00 ((_ extract 695 688) mem_7fffffffffeac50_430_1032))
                #x07fffffffffeac7a
                (ite (= #x00 ((_ extract 687 680) mem_7fffffffffeac50_430_1032))
                     #x07fffffffffeac7b
                     a!8))))
(let ((a!10 (ite (= #x00 ((_ extract 711 704) mem_7fffffffffeac50_430_1032))
                 #x07fffffffffeac78
                 (ite (= #x00
                         ((_ extract 703 696) mem_7fffffffffeac50_430_1032))
                      #x07fffffffffeac79
                      a!9))))
(let ((a!11 (ite (= #x00 ((_ extract 727 720) mem_7fffffffffeac50_430_1032))
                 #x07fffffffffeac76
                 (ite (= #x00
                         ((_ extract 719 712) mem_7fffffffffeac50_430_1032))
                      #x07fffffffffeac77
                      a!10))))
(let ((a!12 (ite (= #x00 ((_ extract 743 736) mem_7fffffffffeac50_430_1032))
                 #x07fffffffffeac74
                 (ite (= #x00
                         ((_ extract 735 728) mem_7fffffffffeac50_430_1032))
                      #x07fffffffffeac75
                      a!11))))
(let ((a!13 (ite (= #x00 ((_ extract 759 752) mem_7fffffffffeac50_430_1032))
                 #x07fffffffffeac72
                 (ite (= #x00
                         ((_ extract 751 744) mem_7fffffffffeac50_430_1032))
                      #x07fffffffffeac73
                      a!12))))
(let ((a!14 (ite (= #x00 ((_ extract 775 768) mem_7fffffffffeac50_430_1032))
                 #x07fffffffffeac70
                 (ite (= #x00
                         ((_ extract 767 760) mem_7fffffffffeac50_430_1032))
                      #x07fffffffffeac71
                      a!13))))
(let ((a!15 (ite (= #x00 ((_ extract 791 784) mem_7fffffffffeac50_430_1032))
                 #x07fffffffffeac6e
                 (ite (= #x00
                         ((_ extract 783 776) mem_7fffffffffeac50_430_1032))
                      #x07fffffffffeac6f
                      a!14))))
(let ((a!16 (ite (= #x00 ((_ extract 807 800) mem_7fffffffffeac50_430_1032))
                 #x07fffffffffeac6c
                 (ite (= #x00
                         ((_ extract 799 792) mem_7fffffffffeac50_430_1032))
                      #x07fffffffffeac6d
                      a!15))))
(let ((a!17 (ite (= #x00 ((_ extract 823 816) mem_7fffffffffeac50_430_1032))
                 #x07fffffffffeac6a
                 (ite (= #x00
                         ((_ extract 815 808) mem_7fffffffffeac50_430_1032))
                      #x07fffffffffeac6b
                      a!16))))
(let ((a!18 (ite (= #x00 ((_ extract 839 832) mem_7fffffffffeac50_430_1032))
                 #x07fffffffffeac68
                 (ite (= #x00
                         ((_ extract 831 824) mem_7fffffffffeac50_430_1032))
                      #x07fffffffffeac69
                      a!17))))
(let ((a!19 (ite (= #x00 ((_ extract 855 848) mem_7fffffffffeac50_430_1032))
                 #x07fffffffffeac66
                 (ite (= #x00
                         ((_ extract 847 840) mem_7fffffffffeac50_430_1032))
                      #x07fffffffffeac67
                      a!18))))
(let ((a!20 (ite (= #x00 ((_ extract 871 864) mem_7fffffffffeac50_430_1032))
                 #x07fffffffffeac64
                 (ite (= #x00
                         ((_ extract 863 856) mem_7fffffffffeac50_430_1032))
                      #x07fffffffffeac65
                      a!19))))
(let ((a!21 (ite (= #x00 ((_ extract 887 880) mem_7fffffffffeac50_430_1032))
                 #x07fffffffffeac62
                 (ite (= #x00
                         ((_ extract 879 872) mem_7fffffffffeac50_430_1032))
                      #x07fffffffffeac63
                      a!20))))
(let ((a!22 (ite (= #x00 ((_ extract 903 896) mem_7fffffffffeac50_430_1032))
                 #x07fffffffffeac60
                 (ite (= #x00
                         ((_ extract 895 888) mem_7fffffffffeac50_430_1032))
                      #x07fffffffffeac61
                      a!21))))
(let ((a!23 (ite (= #x00 ((_ extract 919 912) mem_7fffffffffeac50_430_1032))
                 #x07fffffffffeac5e
                 (ite (= #x00
                         ((_ extract 911 904) mem_7fffffffffeac50_430_1032))
                      #x07fffffffffeac5f
                      a!22))))
(let ((a!24 (ite (= #x00 ((_ extract 935 928) mem_7fffffffffeac50_430_1032))
                 #x07fffffffffeac5c
                 (ite (= #x00
                         ((_ extract 927 920) mem_7fffffffffeac50_430_1032))
                      #x07fffffffffeac5d
                      a!23))))
(let ((a!25 (ite (= #x00 ((_ extract 951 944) mem_7fffffffffeac50_430_1032))
                 #x07fffffffffeac5a
                 (ite (= #x00
                         ((_ extract 943 936) mem_7fffffffffeac50_430_1032))
                      #x07fffffffffeac5b
                      a!24))))
(let ((a!26 (ite (= #x00 ((_ extract 967 960) mem_7fffffffffeac50_430_1032))
                 #x07fffffffffeac58
                 (ite (= #x00
                         ((_ extract 959 952) mem_7fffffffffeac50_430_1032))
                      #x07fffffffffeac59
                      a!25))))
(let ((a!27 (ite (= #x00 ((_ extract 983 976) mem_7fffffffffeac50_430_1032))
                 #x07fffffffffeac56
                 (ite (= #x00
                         ((_ extract 975 968) mem_7fffffffffeac50_430_1032))
                      #x07fffffffffeac57
                      a!26))))
(let ((a!28 (ite (= #x00 ((_ extract 999 992) mem_7fffffffffeac50_430_1032))
                 #x07fffffffffeac54
                 (ite (= #x00
                         ((_ extract 991 984) mem_7fffffffffeac50_430_1032))
                      #x07fffffffffeac55
                      a!27))))
(let ((a!29 (ite (= #x00 ((_ extract 1015 1008) mem_7fffffffffeac50_430_1032))
                 #x07fffffffffeac52
                 (ite (= #x00
                         ((_ extract 1007 1000) mem_7fffffffffeac50_430_1032))
                      #x07fffffffffeac53
                      a!28))))
(let ((a!30 (ite (= #x00 ((_ extract 1031 1024) mem_7fffffffffeac50_430_1032))
                 #x07fffffffffeac50
                 (ite (= #x00
                         ((_ extract 1023 1016) mem_7fffffffffeac50_430_1032))
                      #x07fffffffffeac51
                      a!29))))
  (and (or (= #x00 ((_ extract 975 968) mem_7fffffffffeac50_430_1032))
           (= #x00 ((_ extract 855 848) mem_7fffffffffeac50_430_1032))
           (= #x00 ((_ extract 767 760) mem_7fffffffffeac50_430_1032))
           (= #x00 ((_ extract 991 984) mem_7fffffffffeac50_430_1032))
           (= #x00 ((_ extract 943 936) mem_7fffffffffeac50_430_1032))
           (= #x00 ((_ extract 967 960) mem_7fffffffffeac50_430_1032))
           (= #x00 ((_ extract 751 744) mem_7fffffffffeac50_430_1032))
           (= #x00 ((_ extract 911 904) mem_7fffffffffeac50_430_1032))
           (= #x00 ((_ extract 1007 1000) mem_7fffffffffeac50_430_1032))
           (= #x00 ((_ extract 735 728) mem_7fffffffffeac50_430_1032))
           (= #x00 ((_ extract 871 864) mem_7fffffffffeac50_430_1032))
           (= #x00 ((_ extract 999 992) mem_7fffffffffeac50_430_1032))
           (= #x00 ((_ extract 847 840) mem_7fffffffffeac50_430_1032))
           (= #x00 ((_ extract 1031 1024) mem_7fffffffffeac50_430_1032))
           (= #x00 ((_ extract 1015 1008) mem_7fffffffffeac50_430_1032))
           (= #x00 ((_ extract 655 648) mem_7fffffffffeac50_430_1032))
           (= #x00 ((_ extract 719 712) mem_7fffffffffeac50_430_1032))
           (= #x00 ((_ extract 687 680) mem_7fffffffffeac50_430_1032))
           (= #x00 ((_ extract 559 552) mem_7fffffffffeac50_430_1032))
           (= #x00 ((_ extract 679 672) mem_7fffffffffeac50_430_1032))
           (= #x00 ((_ extract 743 736) mem_7fffffffffeac50_430_1032))
           (= #x00 ((_ extract 567 560) mem_7fffffffffeac50_430_1032))
           (= #x00 ((_ extract 1023 1016) mem_7fffffffffeac50_430_1032))
           (= #x00 ((_ extract 959 952) mem_7fffffffffeac50_430_1032))
           (= #x00 ((_ extract 575 568) mem_7fffffffffeac50_430_1032))
           (= #x00 ((_ extract 647 640) mem_7fffffffffeac50_430_1032))
           (= #x00 ((_ extract 799 792) mem_7fffffffffeac50_430_1032))
           (= #x00 ((_ extract 695 688) mem_7fffffffffeac50_430_1032))
           (= #x00 ((_ extract 727 720) mem_7fffffffffeac50_430_1032))
           (= #x00 ((_ extract 775 768) mem_7fffffffffeac50_430_1032))
           (= #x00 ((_ extract 831 824) mem_7fffffffffeac50_430_1032))
           (= #x00 ((_ extract 583 576) mem_7fffffffffeac50_430_1032))
           (= #x00 ((_ extract 591 584) mem_7fffffffffeac50_430_1032))
           (= #x00 ((_ extract 599 592) mem_7fffffffffeac50_430_1032))
           (= #x00 ((_ extract 807 800) mem_7fffffffffeac50_430_1032))
           (= #x00 ((_ extract 607 600) mem_7fffffffffeac50_430_1032))
           (= #x00 ((_ extract 879 872) mem_7fffffffffeac50_430_1032))
           (= #x00 ((_ extract 823 816) mem_7fffffffffeac50_430_1032))
           (= #x00 ((_ extract 951 944) mem_7fffffffffeac50_430_1032))
           (= #x00 ((_ extract 839 832) mem_7fffffffffeac50_430_1032))
           (= #x00 ((_ extract 663 656) mem_7fffffffffeac50_430_1032))
           (= #x00 ((_ extract 791 784) mem_7fffffffffeac50_430_1032))
           (= #x00 ((_ extract 783 776) mem_7fffffffffeac50_430_1032))
           (= #x00 ((_ extract 759 752) mem_7fffffffffeac50_430_1032))
           (= #x00 ((_ extract 935 928) mem_7fffffffffeac50_430_1032))
           (= #x00 ((_ extract 615 608) mem_7fffffffffeac50_430_1032))
           (= #x00 ((_ extract 815 808) mem_7fffffffffeac50_430_1032))
           (= #x00 ((_ extract 983 976) mem_7fffffffffeac50_430_1032))
           (= #x00 ((_ extract 623 616) mem_7fffffffffeac50_430_1032))
           (= #x00 ((_ extract 703 696) mem_7fffffffffeac50_430_1032))
           (= #x00 ((_ extract 671 664) mem_7fffffffffeac50_430_1032))
           (= #x00 ((_ extract 631 624) mem_7fffffffffeac50_430_1032))
           (= #x00 ((_ extract 919 912) mem_7fffffffffeac50_430_1032))
           (= #x00 ((_ extract 887 880) mem_7fffffffffeac50_430_1032))
           (= #x00 ((_ extract 639 632) mem_7fffffffffeac50_430_1032))
           (= #x00 ((_ extract 895 888) mem_7fffffffffeac50_430_1032))
           (= #x00 ((_ extract 711 704) mem_7fffffffffeac50_430_1032))
           (= #x00 ((_ extract 903 896) mem_7fffffffffeac50_430_1032))
           (= #x00 ((_ extract 927 920) mem_7fffffffffeac50_430_1032))
           (= #x00 ((_ extract 863 856) mem_7fffffffffeac50_430_1032)))
       (= a!30 (bvadd #x07fffffffffeac50 strlen_431_64))))))))))))))))))))))))))))))))))
(maximize (bvadd #x0000000000000001 strlen_431_64))
(check-sat)